57 127 28 190 196 175 198 107 128 35 158 74 66 131 6 111 73 197 194 100 189 120 45 145 124 108 60 170 126 160 134 71 56 30 98 77 193 79 75 156 133 68 157 183 106 95 85 159 64 173 44 165 32 67 13 186 188 142 63 149 58 84 17 5 39 82 2 115 101 8 9 141 19 24 113 163 81 182 103 105 132 114 11 27 46 181 20 55 150 94 147 130 162 25 86 112 54 177 116 91 140 47 1 143 29 99 191 50 118 34 61 36 195 18 135 144 117 4 176 123 52 59 43 154 3 92 121 122 187 70 42 76 15 151 62 153 53 90 38 72 14 171 136 83 40 164 146 78 180 12 178 87 23 26 179 119 137 51 7 65 37 185 148 33 80 129 174 49 0 155 199 125 168 161 93 31 104 96 166 97 169 48 152 69 138 139 16 89 88 10 167 109 22 41 172 184 21 192 110 102